NAME : amz0188.91060_91060.tour
COMMENT : Cost = 91060_91060
COMMENT : Found by LKH-AMZ [Keld Helsgaun] Sun May 11 14:26:38 2025
COMMENT : TW viol.: 0 #: 0
TYPE : TOUR
DIMENSION : 132
TOUR_SECTION
127
110
68
103
70
111
12
23
84
82
105
74
79
124
72
32
43
38
108
119
95
44
76
16
94
26
11
24
5
73
8
36
22
2
120
115
30
98
129
83
116
20
61
64
34
21
87
53
65
15
77
92
85
131
114
71
109
86
121
27
3
28
122
55
99
13
128
126
100
41
39
31
102
93
40
47
56
17
59
88
46
33
107
10
35
6
89
18
75
9
67
25
1
66
62
52
57
4
80
49
63
37
60
117
123
91
112
14
118
7
58
51
54
104
48
106
19
101
78
81
69
29
125
45
132
50
113
130
42
96
90
97
-1
EOF
